data;

param M := 4;
param N := 4;

param connection_cost:	 1  2  3  4 :=
   				      1  2  1  4  2
   					  2  5  4  3  2
   					  3  1  3  2  4
   					  4  2  4  3  2;

param: K:=
   1	2
   2	2
   3	2
   4	2;
   
param: open_cost :=
   1	1
   2	0
   3	2
   4	3;
   
 end;